NAME          
ROWS
 N  OBJ
 L  c1
COLUMNS
    MARKER    'MARKER'                 'INTORG'
    x[1]      c1        849
    x[1]      OBJ       -474
    x[2]      c1        695
    x[2]      OBJ       -349
    x[3]      c1        378
    x[3]      OBJ       -438
    x[4]      c1        389
    x[4]      OBJ       -579
    x[5]      c1        353
    x[5]      OBJ       -733
    x[6]      c1        689
    x[6]      OBJ       -397
    x[7]      c1        327
    x[7]      OBJ       -246
    x[8]      c1        610
    x[8]      OBJ       -330
    x[9]      c1        452
    x[9]      OBJ       -778
    x[10]     c1        640
    x[10]     OBJ       -677
    x[11]     c1        71
    x[11]     OBJ       -879
    x[12]     c1        638
    x[12]     OBJ       -226
    x[13]     c1        766
    x[13]     OBJ       -739
    x[14]     c1        984
    x[14]     OBJ       -746
    x[15]     c1        518
    x[15]     OBJ       -695
    x[16]     c1        247
    x[16]     OBJ       -23
    x[17]     c1        104
    x[17]     OBJ       -906
    x[18]     c1        950
    x[18]     OBJ       -887
    x[19]     c1        519
    x[19]     OBJ       -636
    x[20]     c1        460
    x[20]     OBJ       -359
    x[21]     c1        496
    x[21]     OBJ       -927
    x[22]     c1        333
    x[22]     OBJ       -493
    x[23]     c1        275
    x[23]     OBJ       -53
    x[24]     c1        993
    x[24]     OBJ       -373
    x[25]     c1        327
    x[25]     OBJ       -747
    x[26]     c1        731
    x[26]     OBJ       -623
    x[27]     c1        107
    x[27]     OBJ       -293
    x[28]     c1        870
    x[28]     OBJ       -518
    x[29]     c1        836
    x[29]     OBJ       -720
    x[30]     c1        800
    x[30]     OBJ       -862
    x[31]     c1        522
    x[31]     OBJ       -200
    x[32]     c1        785
    x[32]     OBJ       -895
    x[33]     c1        671
    x[33]     OBJ       -461
    x[34]     c1        91
    x[34]     OBJ       -779
    x[35]     c1        293
    x[35]     OBJ       -452
    x[36]     c1        63
    x[36]     OBJ       -575
    x[37]     c1        157
    x[37]     OBJ       -198
    x[38]     c1        495
    x[38]     OBJ       -568
    x[39]     c1        128
    x[39]     OBJ       -827
    x[40]     c1        8
    x[40]     OBJ       -855
    x[41]     c1        660
    x[41]     OBJ       -930
    x[42]     c1        189
    x[42]     OBJ       -605
    x[43]     c1        495
    x[43]     OBJ       -657
    x[44]     c1        586
    x[44]     OBJ       -176
    x[45]     c1        15
    x[45]     OBJ       -684
    x[46]     c1        804
    x[46]     OBJ       -169
    x[47]     c1        287
    x[47]     OBJ       -666
    x[48]     c1        511
    x[48]     OBJ       -781
    x[49]     c1        47
    x[49]     OBJ       -881
    x[50]     c1        647
    x[50]     OBJ       -384
    x[51]     c1        876
    x[51]     OBJ       -20
    x[52]     c1        671
    x[52]     OBJ       -353
    x[53]     c1        497
    x[53]     OBJ       -190
    x[54]     c1        70
    x[54]     OBJ       -321
    x[55]     c1        301
    x[55]     OBJ       -124
    x[56]     c1        14
    x[56]     OBJ       -677
    x[57]     c1        929
    x[57]     OBJ       -97
    x[58]     c1        694
    x[58]     OBJ       -227
    x[59]     c1        92
    x[59]     OBJ       -931
    x[60]     c1        204
    x[60]     OBJ       -555
    x[61]     c1        362
    x[61]     OBJ       -252
    x[62]     c1        440
    x[62]     OBJ       -411
    x[63]     c1        360
    x[63]     OBJ       -172
    x[64]     c1        314
    x[64]     OBJ       -530
    x[65]     c1        925
    x[65]     OBJ       -302
    x[66]     c1        688
    x[66]     OBJ       -436
    x[67]     c1        282
    x[67]     OBJ       -847
    x[68]     c1        12
    x[68]     OBJ       -501
    x[69]     c1        775
    x[69]     OBJ       -102
    x[70]     c1        775
    x[70]     OBJ       -275
    x[71]     c1        427
    x[71]     OBJ       -455
    x[72]     c1        413
    x[72]     OBJ       -703
    x[73]     c1        24
    x[73]     OBJ       -927
    x[74]     c1        822
    x[74]     OBJ       -125
    x[75]     c1        502
    x[75]     OBJ       -933
    x[76]     c1        43
    x[76]     OBJ       -464
    x[77]     c1        515
    x[77]     OBJ       -62
    x[78]     c1        979
    x[78]     OBJ       -588
    x[79]     c1        369
    x[79]     OBJ       -281
    x[80]     c1        134
    x[80]     OBJ       -119
    x[81]     c1        709
    x[81]     OBJ       -572
    x[82]     c1        679
    x[82]     OBJ       -496
    x[83]     c1        335
    x[83]     OBJ       -813
    x[84]     c1        709
    x[84]     OBJ       -580
    x[85]     c1        174
    x[85]     OBJ       -756
    x[86]     c1        207
    x[86]     OBJ       -25
    x[87]     c1        27
    x[87]     OBJ       -926
    x[88]     c1        709
    x[88]     OBJ       -460
    x[89]     c1        463
    x[89]     OBJ       -937
    x[90]     c1        132
    x[90]     OBJ       -136
    x[91]     c1        649
    x[91]     OBJ       -244
    x[92]     c1        651
    x[92]     OBJ       -921
    x[93]     c1        104
    x[93]     OBJ       -402
    x[94]     c1        661
    x[94]     OBJ       -778
    x[95]     c1        636
    x[95]     OBJ       -253
    x[96]     c1        186
    x[96]     OBJ       -944
    x[97]     c1        155
    x[97]     OBJ       -802
    x[98]     c1        105
    x[98]     OBJ       -768
    x[99]     c1        45
    x[99]     OBJ       -986
    x[100]    c1        75
    x[100]    OBJ       -716
RHS
    rhs       c1        22390
RANGES
BOUNDS
 LO bounds    x[1]      0
 PL bounds    x[1]
 LO bounds    x[2]      0
 PL bounds    x[2]
 LO bounds    x[3]      0
 PL bounds    x[3]
 LO bounds    x[4]      0
 PL bounds    x[4]
 LO bounds    x[5]      0
 PL bounds    x[5]
 LO bounds    x[6]      0
 PL bounds    x[6]
 LO bounds    x[7]      0
 PL bounds    x[7]
 LO bounds    x[8]      0
 PL bounds    x[8]
 LO bounds    x[9]      0
 PL bounds    x[9]
 LO bounds    x[10]     0
 PL bounds    x[10]
 LO bounds    x[11]     0
 PL bounds    x[11]
 LO bounds    x[12]     0
 PL bounds    x[12]
 LO bounds    x[13]     0
 PL bounds    x[13]
 LO bounds    x[14]     0
 PL bounds    x[14]
 LO bounds    x[15]     0
 PL bounds    x[15]
 LO bounds    x[16]     0
 PL bounds    x[16]
 LO bounds    x[17]     0
 PL bounds    x[17]
 LO bounds    x[18]     0
 PL bounds    x[18]
 LO bounds    x[19]     0
 PL bounds    x[19]
 LO bounds    x[20]     0
 PL bounds    x[20]
 LO bounds    x[21]     0
 PL bounds    x[21]
 LO bounds    x[22]     0
 PL bounds    x[22]
 LO bounds    x[23]     0
 PL bounds    x[23]
 LO bounds    x[24]     0
 PL bounds    x[24]
 LO bounds    x[25]     0
 PL bounds    x[25]
 LO bounds    x[26]     0
 PL bounds    x[26]
 LO bounds    x[27]     0
 PL bounds    x[27]
 LO bounds    x[28]     0
 PL bounds    x[28]
 LO bounds    x[29]     0
 PL bounds    x[29]
 LO bounds    x[30]     0
 PL bounds    x[30]
 LO bounds    x[31]     0
 PL bounds    x[31]
 LO bounds    x[32]     0
 PL bounds    x[32]
 LO bounds    x[33]     0
 PL bounds    x[33]
 LO bounds    x[34]     0
 PL bounds    x[34]
 LO bounds    x[35]     0
 PL bounds    x[35]
 LO bounds    x[36]     0
 PL bounds    x[36]
 LO bounds    x[37]     0
 PL bounds    x[37]
 LO bounds    x[38]     0
 PL bounds    x[38]
 LO bounds    x[39]     0
 PL bounds    x[39]
 LO bounds    x[40]     0
 PL bounds    x[40]
 LO bounds    x[41]     0
 PL bounds    x[41]
 LO bounds    x[42]     0
 PL bounds    x[42]
 LO bounds    x[43]     0
 PL bounds    x[43]
 LO bounds    x[44]     0
 PL bounds    x[44]
 LO bounds    x[45]     0
 PL bounds    x[45]
 LO bounds    x[46]     0
 PL bounds    x[46]
 LO bounds    x[47]     0
 PL bounds    x[47]
 LO bounds    x[48]     0
 PL bounds    x[48]
 LO bounds    x[49]     0
 PL bounds    x[49]
 LO bounds    x[50]     0
 PL bounds    x[50]
 LO bounds    x[51]     0
 PL bounds    x[51]
 LO bounds    x[52]     0
 PL bounds    x[52]
 LO bounds    x[53]     0
 PL bounds    x[53]
 LO bounds    x[54]     0
 PL bounds    x[54]
 LO bounds    x[55]     0
 PL bounds    x[55]
 LO bounds    x[56]     0
 PL bounds    x[56]
 LO bounds    x[57]     0
 PL bounds    x[57]
 LO bounds    x[58]     0
 PL bounds    x[58]
 LO bounds    x[59]     0
 PL bounds    x[59]
 LO bounds    x[60]     0
 PL bounds    x[60]
 LO bounds    x[61]     0
 PL bounds    x[61]
 LO bounds    x[62]     0
 PL bounds    x[62]
 LO bounds    x[63]     0
 PL bounds    x[63]
 LO bounds    x[64]     0
 PL bounds    x[64]
 LO bounds    x[65]     0
 PL bounds    x[65]
 LO bounds    x[66]     0
 PL bounds    x[66]
 LO bounds    x[67]     0
 PL bounds    x[67]
 LO bounds    x[68]     0
 PL bounds    x[68]
 LO bounds    x[69]     0
 PL bounds    x[69]
 LO bounds    x[70]     0
 PL bounds    x[70]
 LO bounds    x[71]     0
 PL bounds    x[71]
 LO bounds    x[72]     0
 PL bounds    x[72]
 LO bounds    x[73]     0
 PL bounds    x[73]
 LO bounds    x[74]     0
 PL bounds    x[74]
 LO bounds    x[75]     0
 PL bounds    x[75]
 LO bounds    x[76]     0
 PL bounds    x[76]
 LO bounds    x[77]     0
 PL bounds    x[77]
 LO bounds    x[78]     0
 PL bounds    x[78]
 LO bounds    x[79]     0
 PL bounds    x[79]
 LO bounds    x[80]     0
 PL bounds    x[80]
 LO bounds    x[81]     0
 PL bounds    x[81]
 LO bounds    x[82]     0
 PL bounds    x[82]
 LO bounds    x[83]     0
 PL bounds    x[83]
 LO bounds    x[84]     0
 PL bounds    x[84]
 LO bounds    x[85]     0
 PL bounds    x[85]
 LO bounds    x[86]     0
 PL bounds    x[86]
 LO bounds    x[87]     0
 PL bounds    x[87]
 LO bounds    x[88]     0
 PL bounds    x[88]
 LO bounds    x[89]     0
 PL bounds    x[89]
 LO bounds    x[90]     0
 PL bounds    x[90]
 LO bounds    x[91]     0
 PL bounds    x[91]
 LO bounds    x[92]     0
 PL bounds    x[92]
 LO bounds    x[93]     0
 PL bounds    x[93]
 LO bounds    x[94]     0
 PL bounds    x[94]
 LO bounds    x[95]     0
 PL bounds    x[95]
 LO bounds    x[96]     0
 PL bounds    x[96]
 LO bounds    x[97]     0
 PL bounds    x[97]
 LO bounds    x[98]     0
 PL bounds    x[98]
 LO bounds    x[99]     0
 PL bounds    x[99]
 LO bounds    x[100]    0
 PL bounds    x[100]
ENDATA
